n=7; % Tamaño de matriz
            k=4; % Nuevas localizaciones
            v=3; % Localizaciones establecidas

            x_coordinate = [2, 6, 8];
            y_coordinate = [2, 5, 7];

            P = array2d(0..n-1, 0..n-1, [
                12, 12, 12, 12, 12, 12, 12,
    12, 18, 18, 18, 18, 12, 12,
    12, 18, 24, 24, 18, 12, 12,
    12, 18, 24, 30, 24, 18, 12,
    12, 18, 18, 24, 24, 18, 12,
    12, 12, 12, 18, 18, 12, 12,
    12, 12, 12, 12, 12, 12, 12

            ]);

            E = array2d(0..n-1, 0..n-1, [
                12, 12, 12, 12, 12, 12, 12,
    18, 18, 18, 18, 18, 18, 18,
    18, 24, 24, 24, 24, 18, 18,
    18, 24, 30, 30, 24, 24, 18,
    18, 24, 30, 36, 30, 24, 18,
    18, 24, 24, 30, 30, 24, 18,
    18, 18, 24, 24, 24, 18, 18
            ]);